letting initialStacks = [6, 22, 35, 20, 38, 47, 7, 42, 15, 40, 45, 13, 39, 48, 3, 44, 28, 34, 12, 19, 21, 10, 26, 49, 36, 14, 25, 5, 9, 46, 1, 30, 33, 32, 41, 18, 8, 50, 2, 11, 43, 23, 51, 31, 16, 4, 29, 37, 24, 27, 17]
